n_res = 4;
rc = [ 23, 17, 16, 18 ];
n_tasks = 30;
d = [ 6, 2, 8, 1, 9, 5, 3, 3, 1, 9, 8, 3, 3, 9, 9, 1, 1, 1, 10, 6, 1, 8, 9, 5, 4, 5, 8, 1, 9, 10 ];
rr = [| 23, 23, 23, 23, 23, 23, 23, 23, 23, 23, 23, 23, 23, 23, 23, 23, 23, 23, 23, 23, 23, 23, 23, 23, 23, 23, 23, 23, 23, 23
      | 17, 17, 17, 17, 17, 17, 17, 17, 17, 17, 17, 17, 17, 17, 17, 17, 17, 17, 17, 17, 17, 17, 17, 17, 17, 17, 17, 17, 17, 17
      | 16, 16, 16, 16, 16, 16, 16, 16, 16, 16, 16, 16, 16, 16, 16, 16, 16, 16, 16, 16, 16, 16, 16, 16, 16, 16, 16, 16, 16, 16
      | 18, 18, 18, 18, 18, 18, 18, 18, 18, 18, 18, 18, 18, 18, 18, 18, 18, 18, 18, 18, 18, 18, 18, 18, 18, 18, 18, 18, 18, 18|];
suc = [ { 9, 16, 25 },
       { 4, 5, 11 },
       { 4, 5, 6 },
       { 13, 15, 30 },
       { 12, 21 },
       { 7, 13, 17 },
       { 8, 9, 14 },
       { 10, 12, 21 },
       { 26, 27 },
       { 15, 18 },
       { 16, 17, 27 },
       { 15, 19, 24 },
       { 16, 19, 24 },
       { 18, 30 },
       { 23, 25, 27 },
       { 28 },
       { 18, 19, 21 },
       { 20, 22, 24 },
       { 20, 22 },
       { 23, 28 },
       { 22, 30 },
       { 23, 25 },
       { 29 },
       { 26, 29 },
       { 26 },
       { 28 },
       { 29 },
       {  },
       {  },
       {  } ];
